WARNING: for repeatability, setting FPU to use double precision
============================[ Problem Statistics ]=============================
|                                                                             |
|  Number of variables:            50                                         |
|  Number of clauses:             218                                         |
|  Parse time:                   0.00 s                                       |
|                                                                             |
============================[ Search Statistics ]==============================
| Conflicts |          ORIGINAL         |          LEARNT          | Progress |
|           |    Vars  Clauses Literals |    Limit  Clauses Lit/Cl |          |
===============================================================================
===============================================================================
restarts              : 1
conflicts             : 5              (3674 /sec)
decisions             : 27             (0.00 % random) (19838 /sec)
propagations          : 134            (98457 /sec)
conflict literals     : 18             (0.00 % deleted)
Memory used           : 20.00 MB
CPU time              : 0.001361 s

SATISFIABLE
